200
150
100
100
100
100
100
99
99
98
98
97
97
96
96
96
95
95
94
94
94
94
93
92
91
91
90
90
90
90
90
90
89
89
88
87
85
85
85
83
83
83
82
82
82
81
81
81
80
80
79
79
79
78
78
77
77
77
76
76
76
75
75
75
73
73
72
72
72
71
71
70
70
70
69
68
67
67
67
67
67
66
66
65
65
64
64
64
63
62
62
61
61
61
61
60
60
60
58
58
58
56
55
54
54
53
53
53
53
51
51
49
49
49
48
48
48
47
46
46
45
44
44
42
42
42
42
42
41
41
41
41
41
40
40
39
38
38
37
36
36
34
34
34
34
33
32
32
32
31
31
31
29
29
28
27
26
26
25
25
24
23
22
21
21
21
21
20
19
19
18
17
17
16
16
15
15
14
13
13
13
12
11
11
11
10
10
9
9
8
8
8
7
7
6
5
5
4
3
3
2
1
